(set-logic QF_S)

(declare-fun var_0 () String)
(declare-fun var_1 () String)
(declare-fun var_2 () String)
(declare-fun var_3 () String)
(declare-fun var_4 () String)
(declare-fun var_5 () String)
(declare-fun var_6 () String)
(declare-fun var_7 () String)
(declare-fun var_8 () String)
(declare-fun var_9 () String)
(declare-fun var_10 () String)
(declare-fun var_11 () String)
(declare-fun var_12 () String)

(assert (not (str.in.re "z" (re.++ (re.* (re.++ (str.to.re "b") (str.to.re "z"))) (str.to.re "b")))))
(check-sat)
